4019
4117
1041
5421
7181
2029
5360
7159
5441
2497
9835
6667
6610
520
6819
8351
3901
5451
4730
518
9270
6764
8357
8331
1671
9151
7904
8822
8996
3327
3382
6436
6431
4497
10097
1280
5397
5391
1370
8334
2314
4708
3481
1717
9352
7690
4963
2589
7615
9540
7778
